--------------------------------------------------------------------------------------------------------------------------------------------
1188 2477 
--------------------------------------------------------------------------------------------------------------------------------------------
1014 825 
--------------------------------------------------------------------------------------------------------------------------------------------
1 82 
--------------------------------------------------------------------------------------------------------------------------------------------
51 1 
--------------------------------------------------------------------------------------------------------------------------------------------
2023 1099 
--------------------------------------------------------------------------------------------------------------------------------------------
749 987 
--------------------------------------------------------------------------------------------------------------------------------------------
57 1 
--------------------------------------------------------------------------------------------------------------------------------------------
1 51 
--------------------------------------------------------------------------------------------------------------------------------------------
2436 1031 
--------------------------------------------------------------------------------------------------------------------------------------------
809 871 
--------------------------------------------------------------------------------------------------------------------------------------------
60 1 
--------------------------------------------------------------------------------------------------------------------------------------------
1 51 
--------------------------------------------------------------------------------------------------------------------------------------------
2171 1235 
--------------------------------------------------------------------------------------------------------------------------------------------
835 1058 
--------------------------------------------------------------------------------------------------------------------------------------------
53 1 
--------------------------------------------------------------------------------------------------------------------------------------------
1 89 
--------------------------------------------------------------------------------------------------------------------------------------------
1043 2163 
--------------------------------------------------------------------------------------------------------------------------------------------
939 699 
--------------------------------------------------------------------------------------------------------------------------------------------
1 52 
--------------------------------------------------------------------------------------------------------------------------------------------
51 1 
--------------------------------------------------------------------------------------------------------------------------------------------
2107 1155 
--------------------------------------------------------------------------------------------------------------------------------------------
774 950 
--------------------------------------------------------------------------------------------------------------------------------------------
53 1 
--------------------------------------------------------------------------------------------------------------------------------------------
1 51 
--------------------------------------------------------------------------------------------------------------------------------------------
1225 2148 
--------------------------------------------------------------------------------------------------------------------------------------------
1021 794 
--------------------------------------------------------------------------------------------------------------------------------------------
1 52 
--------------------------------------------------------------------------------------------------------------------------------------------
51 1 
--------------------------------------------------------------------------------------------------------------------------------------------
992 1534 
--------------------------------------------------------------------------------------------------------------------------------------------
829 721 
--------------------------------------------------------------------------------------------------------------------------------------------
1 69 
--------------------------------------------------------------------------------------------------------------------------------------------
51 1 
--------------------------------------------------------------------------------------------------------------------------------------------
992 1534 
--------------------------------------------------------------------------------------------------------------------------------------------
829 721 
--------------------------------------------------------------------------------------------------------------------------------------------
1 69 
--------------------------------------------------------------------------------------------------------------------------------------------
51 1 
--------------------------------------------------------------------------------------------------------------------------------------------
2493 1185 
--------------------------------------------------------------------------------------------------------------------------------------------
847 1056 
--------------------------------------------------------------------------------------------------------------------------------------------
52 1 
--------------------------------------------------------------------------------------------------------------------------------------------
1 90 
